c Created with the Wolfram Language : www.wolfram.com
c 
p edge 70 136
e 1 5
e 3 5
e 4 8
e 5 8
e 11 12
e 16 17
e 2 18
e 9 19
e 5 20
e 7 20
e 11 20
e 5 21
e 19 23
e 7 24
e 9 24
e 17 25
e 17 26
e 9 27
e 16 27
e 19 27
e 22 27
e 26 27
e 6 28
e 27 29
e 27 30
e 15 31
e 21 31
e 23 31
e 29 31
e 1 32
e 6 32
e 10 32
e 15 32
e 21 33
e 27 35
e 4 37
e 19 37
e 2 38
e 24 38
e 8 39
e 19 39
e 21 39
e 31 39
e 18 40
e 21 40
e 25 40
e 33 40
e 14 41
e 16 41
e 32 41
e 33 41
e 37 41
e 40 41
e 6 42
e 19 42
e 11 43
e 19 43
e 39 43
e 16 44
e 42 44
e 3 45
e 12 45
e 35 45
e 27 46
e 3 47
e 32 47
e 33 47
e 5 48
e 27 48
e 46 49
e 47 49
e 31 50
e 42 50
e 25 51
e 30 51
e 48 51
e 21 52
e 24 52
e 40 52
e 43 52
e 50 52
e 1 53
e 4 53
e 15 53
e 33 53
e 49 53
e 3 54
e 8 54
e 27 54
e 3 55
e 29 56
e 32 56
e 35 57
e 48 58
e 54 58
e 34 59
e 52 59
e 4 60
e 33 60
e 39 60
e 53 60
e 41 61
e 55 61
e 13 62
e 41 62
e 52 62
e 43 63
e 55 63
e 51 64
e 52 64
e 62 64
e 19 65
e 30 65
e 45 65
e 46 65
e 54 65
e 9 66
e 16 66
e 18 66
e 44 66
e 63 66
e 4 67
e 9 67
e 48 67
e 24 68
e 36 68
e 60 68
e 3 69
e 16 69
e 35 69
e 40 69
e 10 70
e 24 70
e 35 70
e 55 70
e 64 70
